(set-info :smt-lib-version 2.6)
(set-logic UF)
(set-info :source |Benchmarks from the paper: "Extending Sledgehammer with SMT Solvers" by Jasmin Blanchette, Sascha Bohme, and Lawrence C. Paulson, CADE 2011.  Translated to SMT2 by Andrew Reynolds and Morgan Deters.|)
(set-info :category "industrial")
(set-info :status unsat)
(declare-sort S1 0)
(declare-sort S2 0)
(declare-sort S3 0)
(declare-sort S4 0)
(declare-sort S5 0)
(declare-sort S6 0)
(declare-sort S7 0)
(declare-sort S8 0)
(declare-sort S9 0)
(declare-sort S10 0)
(declare-sort S11 0)
(declare-sort S12 0)
(declare-sort S13 0)
(declare-sort S14 0)
(declare-sort S15 0)
(declare-sort S16 0)
(declare-sort S17 0)
(declare-sort S18 0)
(declare-sort S19 0)
(declare-sort S20 0)
(declare-sort S21 0)
(declare-sort S22 0)
(declare-sort S23 0)
(declare-sort S24 0)
(declare-sort S25 0)
(declare-sort S26 0)
(declare-sort S27 0)
(declare-sort S28 0)
(declare-sort S29 0)
(declare-sort S30 0)
(declare-sort S31 0)
(declare-sort S32 0)
(declare-sort S33 0)
(declare-sort S34 0)
(declare-sort S35 0)
(declare-sort S36 0)
(declare-sort S37 0)
(declare-sort S38 0)
(declare-sort S39 0)
(declare-sort S40 0)
(declare-sort S41 0)
(declare-sort S42 0)
(declare-sort S43 0)
(declare-sort S44 0)
(declare-sort S45 0)
(declare-sort S46 0)
(declare-sort S47 0)
(declare-sort S48 0)
(declare-sort S49 0)
(declare-sort S50 0)
(declare-fun f1 () S1)
(declare-fun f2 () S1)
(declare-fun f3 (S2 S3) S1)
(declare-fun f4 (S4 S5) S2)
(declare-fun f5 () S4)
(declare-fun f6 () S5)
(declare-fun f7 (S6 S7) S3)
(declare-fun f8 (S8 S9) S6)
(declare-fun f9 (S10 S7) S8)
(declare-fun f10 () S10)
(declare-fun f11 () S7)
(declare-fun f12 (S11 S12) S9)
(declare-fun f13 () S11)
(declare-fun f14 (S13) S12)
(declare-fun f15 () S13)
(declare-fun f16 () S7)
(declare-fun f17 (S14 S5) S5)
(declare-fun f18 () S14)
(declare-fun f19 (S15 S13) S9)
(declare-fun f20 () S15)
(declare-fun f21 (S16 S2) S1)
(declare-fun f22 (S17 S2) S16)
(declare-fun f23 () S17)
(declare-fun f24 (S18 S3) S16)
(declare-fun f25 () S18)
(declare-fun f26 (S20 S19) S1)
(declare-fun f27 (S21 S5) S20)
(declare-fun f28 (S22 S19) S21)
(declare-fun f29 (S23 S9) S22)
(declare-fun f30 () S23)
(declare-fun f31 () S5)
(declare-fun f32 (S24 S19) S20)
(declare-fun f33 (S25 S9) S24)
(declare-fun f34 () S25)
(declare-fun f35 (S7 S26) S20)
(declare-fun f36 (S28 S3) S5)
(declare-fun f37 (S29 S27) S28)
(declare-fun f38 () S29)
(declare-fun f39 () S28)
(declare-fun f40 (S30 S5) S1)
(declare-fun f41 (S31 S9) S5)
(declare-fun f42 () S31)
(declare-fun f43 () S31)
(declare-fun f44 () S32)
(declare-fun f45 () S9)
(declare-fun f46 (S35 S34) S9)
(declare-fun f47 (S36 S13) S35)
(declare-fun f48 (S37 S33) S36)
(declare-fun f49 () S37)
(declare-fun f50 (S38 S33) S35)
(declare-fun f51 () S38)
(declare-fun f52 (S39 S5) S30)
(declare-fun f53 () S39)
(declare-fun f54 (S41 S32) S1)
(declare-fun f55 (S42 S32) S41)
(declare-fun f56 () S42)
(declare-fun f57 (S40 S5) S32)
(declare-fun f58 (S43 S5) S19)
(declare-fun f59 (S44 S33) S43)
(declare-fun f60 (S45 S19) S44)
(declare-fun f61 () S45)
(declare-fun f62 (S34 S19) S5)
(declare-fun f63 () S40)
(declare-fun f64 () S14)
(declare-fun f65 (S46 S9) S1)
(declare-fun f66 () S46)
(declare-fun f67 () S12)
(declare-fun f68 (S47 S32) S32)
(declare-fun f69 () S47)
(declare-fun f70 (S48 S32) S47)
(declare-fun f71 () S48)
(declare-fun f72 () S47)
(declare-fun f73 (S49 S5) S14)
(declare-fun f74 () S49)
(declare-fun f75 (S50 S32) S5)
(declare-fun f76 () S50)
(declare-fun f77 () S42)
(assert (not (= f1 f2)))
(assert (let ((?v_0 (f9 f10 f11))) (not (= (= (f3 (f4 f5 f6) (f7 (f8 ?v_0 (f12 f13 (f14 f15))) f16)) f1) (= (f3 (f4 f5 (f17 f18 f6)) (f7 (f8 ?v_0 (f19 f20 f15)) f16)) f1)))))
(assert (forall ((?v0 S7) (?v1 S9) (?v2 S7) (?v3 S7) (?v4 S9) (?v5 S7)) (= (= (f7 (f8 (f9 f10 ?v0) ?v1) ?v2) (f7 (f8 (f9 f10 ?v3) ?v4) ?v5)) (and (= ?v0 ?v3) (and (= ?v1 ?v4) (= ?v2 ?v5))))))
(assert (forall ((?v0 S2) (?v1 S2)) (= (= (f21 (f22 f23 ?v0) ?v1) f1) (forall ((?v2 S5)) (=> (forall ((?v3 S3)) (=> (= (f21 (f24 f25 ?v3) ?v0) f1) (= (f3 (f4 f5 ?v2) ?v3) f1))) (forall ((?v3 S3)) (=> (= (f21 (f24 f25 ?v3) ?v1) f1) (= (f3 (f4 f5 ?v2) ?v3) f1))))))))
(assert (forall ((?v0 S3)) (=> (forall ((?v1 S7) (?v2 S9) (?v3 S7)) (=> (= ?v0 (f7 (f8 (f9 f10 ?v1) ?v2) ?v3)) false)) false)))
(assert (forall ((?v0 S13) (?v1 S19) (?v2 S5) (?v3 S19)) (=> (= (f26 (f27 (f28 (f29 f30 (f12 f13 (f14 ?v0))) ?v1) ?v2) ?v3) f1) (= (f26 (f27 (f28 (f29 f30 (f19 f20 ?v0)) ?v1) (f17 f18 ?v2)) ?v3) f1))))
(assert (forall ((?v0 S7) (?v1 S13) (?v2 S7)) (= (f3 (f4 f5 f31) (f7 (f8 (f9 f10 ?v0) (f19 f20 ?v1)) ?v2)) f1)))
(assert (forall ((?v0 S13) (?v1 S13)) (= (= (f19 f20 ?v0) (f19 f20 ?v1)) (= ?v0 ?v1))))
(assert (forall ((?v0 S13) (?v1 S19) (?v2 S19)) (=> (= (f26 (f32 (f33 f34 (f19 f20 ?v0)) ?v1) ?v2) f1) (=> (=> (= (f26 (f32 (f33 f34 (f12 f13 (f14 ?v0))) ?v1) ?v2) f1) false) false))))
(assert (forall ((?v0 S13) (?v1 S19) (?v2 S19)) (=> (= (f26 (f32 (f33 f34 (f12 f13 (f14 ?v0))) ?v1) ?v2) f1) (= (f26 (f32 (f33 f34 (f19 f20 ?v0)) ?v1) ?v2) f1))))
(assert (forall ((?v0 S13) (?v1 S19) (?v2 S5) (?v3 S19)) (=> (= (f26 (f27 (f28 (f29 f30 (f19 f20 ?v0)) ?v1) ?v2) ?v3) f1) (=> (forall ((?v4 S5)) (=> (= ?v2 (f17 f18 ?v4)) (=> (= (f26 (f27 (f28 (f29 f30 (f12 f13 (f14 ?v0))) ?v1) ?v4) ?v3) f1) false))) false))))
(assert (forall ((?v0 S5)) (not (= ?v0 (f17 f18 ?v0)))))
(assert (forall ((?v0 S5)) (not (= (f17 f18 ?v0) ?v0))))
(assert (forall ((?v0 S9) (?v1 S19) (?v2 S19)) (= (= (f26 (f32 (f33 f34 ?v0) ?v1) ?v2) f1) (exists ((?v3 S5)) (= (f26 (f27 (f28 (f29 f30 ?v0) ?v1) ?v3) ?v2) f1)))))
(assert (forall ((?v0 S9) (?v1 S19) (?v2 S19) (?v3 S19)) (let ((?v_0 (f32 (f33 f34 ?v0) ?v1))) (=> (= (f26 ?v_0 ?v2) f1) (=> (= (f26 ?v_0 ?v3) f1) (= ?v3 ?v2))))))
(assert (forall ((?v0 S9) (?v1 S19) (?v2 S5) (?v3 S19)) (=> (= (f26 (f27 (f28 (f29 f30 ?v0) ?v1) ?v2) ?v3) f1) (= (f26 (f32 (f33 f34 ?v0) ?v1) ?v3) f1))))
(assert (forall ((?v0 S5)) (=> (= (f17 f18 ?v0) f31) false)))
(assert (forall ((?v0 S5)) (=> (= f31 (f17 f18 ?v0)) false)))
(assert (forall ((?v0 S5)) (not (= (f17 f18 ?v0) f31))))
(assert (forall ((?v0 S5)) (not (= (f17 f18 ?v0) f31))))
(assert (forall ((?v0 S5)) (not (= f31 (f17 f18 ?v0)))))
(assert (forall ((?v0 S5)) (not (= f31 (f17 f18 ?v0)))))
(assert (forall ((?v0 S9) (?v1 S19) (?v2 S5) (?v3 S19)) (let ((?v_0 (f28 (f29 f30 ?v0) ?v1))) (=> (= (f26 (f27 ?v_0 ?v2) ?v3) f1) (= (f26 (f27 ?v_0 (f17 f18 ?v2)) ?v3) f1)))))
(assert (forall ((?v0 S5) (?v1 S7) (?v2 S9) (?v3 S7)) (= (= (f3 (f4 f5 ?v0) (f7 (f8 (f9 f10 ?v1) ?v2) ?v3)) f1) (forall ((?v4 S26) (?v5 S19)) (=> (= (f26 (f35 ?v1 ?v4) ?v5) f1) (forall ((?v6 S19)) (=> (= (f26 (f27 (f28 (f29 f30 ?v2) ?v5) ?v0) ?v6) f1) (= (f26 (f35 ?v3 ?v4) ?v6) f1))))))))
(assert (forall ((?v0 S5) (?v1 S5)) (=> (= (f17 f18 ?v0) (f17 f18 ?v1)) (= ?v0 ?v1))))
(assert (forall ((?v0 S5) (?v1 S5)) (= (= (f17 f18 ?v0) (f17 f18 ?v1)) (= ?v0 ?v1))))
(assert (forall ((?v0 S27) (?v1 S7) (?v2 S9) (?v3 S7)) (= (f36 (f37 f38 ?v0) (f7 (f8 (f9 f10 ?v1) ?v2) ?v3)) f31)))
(assert (forall ((?v0 S7) (?v1 S9) (?v2 S7)) (= (f36 f39 (f7 (f8 (f9 f10 ?v0) ?v1) ?v2)) f31)))
(assert (forall ((?v0 S9) (?v1 S19) (?v2 S19)) (=> (= (f26 (f32 (f33 f34 ?v0) ?v1) ?v2) f1) (exists ((?v3 S5)) (= (f26 (f27 (f28 (f29 f30 ?v0) ?v1) ?v3) ?v2) f1)))))
(assert (forall ((?v0 S5)) (=> (=> (= ?v0 f31) false) (=> (forall ((?v1 S5)) (=> (= ?v0 (f17 f18 ?v1)) false)) false))))
(assert (forall ((?v0 S30) (?v1 S5)) (=> (= (f40 ?v0 ?v1) f1) (=> (forall ((?v2 S5)) (=> (= (f40 ?v0 (f17 f18 ?v2)) f1) (= (f40 ?v0 ?v2) f1))) (= (f40 ?v0 f31) f1)))))
(assert (forall ((?v0 S30) (?v1 S5)) (=> (= (f40 ?v0 f31) f1) (=> (forall ((?v2 S5)) (=> (= (f40 ?v0 ?v2) f1) (= (f40 ?v0 (f17 f18 ?v2)) f1))) (= (f40 ?v0 ?v1) f1)))))
(assert (forall ((?v0 S5)) (=> (not (= ?v0 f31)) (exists ((?v1 S5)) (= ?v0 (f17 f18 ?v1))))))
(assert (forall ((?v0 S9) (?v1 S19) (?v2 S5) (?v3 S19) (?v4 S9) (?v5 S19) (?v6 S5) (?v7 S19)) (=> (= (f26 (f27 (f28 (f29 f30 ?v0) ?v1) ?v2) ?v3) f1) (=> (= (f26 (f27 (f28 (f29 f30 ?v4) ?v5) ?v6) ?v7) f1) (exists ((?v8 S5)) (and (= (f26 (f27 (f28 (f29 f30 ?v0) ?v1) ?v8) ?v3) f1) (= (f26 (f27 (f28 (f29 f30 ?v4) ?v5) ?v8) ?v7) f1)))))))
(assert (forall ((?v0 S13)) (= (f41 f42 (f19 f20 ?v0)) f31)))
(assert (forall ((?v0 S13)) (= (f41 f43 (f19 f20 ?v0)) f31)))
(assert (forall ((?v0 S32)) (= (= f44 ?v0) (= ?v0 f44))))
(assert (forall ((?v0 S5)) (= (= f31 ?v0) (= ?v0 f31))))
(assert (= (f41 f43 f45) f31))
(assert (= (f41 f42 f45) f31))
(assert (forall ((?v0 S33) (?v1 S13) (?v2 S34)) (= (f41 f43 (f46 (f47 (f48 f49 ?v0) ?v1) ?v2)) f31)))
(assert (forall ((?v0 S33) (?v1 S34)) (= (f41 f43 (f46 (f50 f51 ?v0) ?v1)) f31)))
(assert (forall ((?v0 S33) (?v1 S13) (?v2 S34)) (= (f41 f42 (f46 (f47 (f48 f49 ?v0) ?v1) ?v2)) f31)))
(assert (forall ((?v0 S33) (?v1 S34)) (= (f41 f42 (f46 (f50 f51 ?v0) ?v1)) f31)))
(assert (forall ((?v0 S5)) (= (f40 (f52 f53 f31) (f17 f18 ?v0)) f1)))
(assert (forall ((?v0 S5)) (=> (= (f40 (f52 f53 ?v0) f31) f1) false)))
(assert (forall ((?v0 S5) (?v1 S5)) (=> (= (f40 (f52 f53 ?v0) ?v1) f1) (= (f40 (f52 f53 (f17 f18 ?v0)) (f17 f18 ?v1)) f1))))
(assert (forall ((?v0 S5)) (= (f40 (f52 f53 ?v0) (f17 f18 ?v0)) f1)))
(assert (forall ((?v0 S19) (?v1 S5)) (= (f26 (f27 (f28 (f29 f30 f45) ?v0) ?v1) ?v0) f1)))
(assert (forall ((?v0 S19) (?v1 S5) (?v2 S19)) (=> (= (f26 (f27 (f28 (f29 f30 f45) ?v0) ?v1) ?v2) f1) (=> (=> (= ?v2 ?v0) false) false))))
(assert (forall ((?v0 S19)) (= (f26 (f32 (f33 f34 f45) ?v0) ?v0) f1)))
(assert (forall ((?v0 S19) (?v1 S19)) (=> (= (f26 (f32 (f33 f34 f45) ?v0) ?v1) f1) (=> (=> (= ?v1 ?v0) false) false))))
(assert (forall ((?v0 S5) (?v1 S5) (?v2 S39)) (let ((?v_0 (= (f40 (f52 ?v2 ?v1) ?v0) f1))) (=> (=> (= (f40 (f52 f53 ?v0) ?v1) f1) ?v_0) (=> (=> (= ?v0 ?v1) ?v_0) (=> (=> (= (f40 (f52 f53 ?v1) ?v0) f1) ?v_0) ?v_0))))))
(assert (forall ((?v0 S5) (?v1 S5)) (=> (= (f40 (f52 f53 ?v0) ?v1) f1) (not (= ?v0 ?v1)))))
(assert (forall ((?v0 S5) (?v1 S5)) (=> (= (f40 (f52 f53 ?v0) ?v1) f1) (not (= ?v1 ?v0)))))
(assert (forall ((?v0 S5)) (=> (= (f40 (f52 f53 ?v0) ?v0) f1) false)))
(assert (forall ((?v0 S5) (?v1 S5)) (=> (not (= ?v0 ?v1)) (=> (=> (= (f40 (f52 f53 ?v0) ?v1) f1) false) (=> (=> (= (f40 (f52 f53 ?v1) ?v0) f1) false) false)))))
(assert (forall ((?v0 S33) (?v1 S13) (?v2 S34) (?v3 S33) (?v4 S13) (?v5 S34)) (= (= (f46 (f47 (f48 f49 ?v0) ?v1) ?v2) (f46 (f47 (f48 f49 ?v3) ?v4) ?v5)) (and (= ?v0 ?v3) (and (= ?v1 ?v4) (= ?v2 ?v5))))))
(assert (forall ((?v0 S33) (?v1 S34) (?v2 S33) (?v3 S34)) (= (= (f46 (f50 f51 ?v0) ?v1) (f46 (f50 f51 ?v2) ?v3)) (and (= ?v0 ?v2) (= ?v1 ?v3)))))
(assert (forall ((?v0 S5) (?v1 S5)) (= (not (= ?v0 ?v1)) (or (= (f40 (f52 f53 ?v0) ?v1) f1) (= (f40 (f52 f53 ?v1) ?v0) f1)))))
(assert (forall ((?v0 S33) (?v1 S13) (?v2 S34) (?v3 S33) (?v4 S34)) (not (= (f46 (f47 (f48 f49 ?v0) ?v1) ?v2) (f46 (f50 f51 ?v3) ?v4)))))
(assert (forall ((?v0 S33) (?v1 S13) (?v2 S34)) (not (= (f46 (f47 (f48 f49 ?v0) ?v1) ?v2) f45))))
(assert (forall ((?v0 S33) (?v1 S34) (?v2 S33) (?v3 S13) (?v4 S34)) (not (= (f46 (f50 f51 ?v0) ?v1) (f46 (f47 (f48 f49 ?v2) ?v3) ?v4)))))
(assert (forall ((?v0 S33) (?v1 S34)) (not (= (f46 (f50 f51 ?v0) ?v1) f45))))
(assert (forall ((?v0 S5)) (not (= (f40 (f52 f53 ?v0) ?v0) f1))))
(assert (forall ((?v0 S33) (?v1 S13) (?v2 S34)) (not (= f45 (f46 (f47 (f48 f49 ?v0) ?v1) ?v2)))))
(assert (forall ((?v0 S33) (?v1 S34)) (not (= f45 (f46 (f50 f51 ?v0) ?v1)))))
(assert (forall ((?v0 S5)) (not (= (f40 (f52 f53 ?v0) f31) f1))))
(assert (forall ((?v0 S5)) (= (not (= ?v0 f31)) (= (f40 (f52 f53 f31) ?v0) f1))))
(assert (forall ((?v0 S5)) (= (= (f40 (f52 f53 ?v0) f31) f1) false)))
(assert (forall ((?v0 S5) (?v1 S5)) (=> (= (f40 (f52 f53 ?v0) ?v1) f1) (not (= ?v1 f31)))))
(assert (forall ((?v0 S5)) (=> (=> (= ?v0 f31) false) (= (f40 (f52 f53 f31) ?v0) f1))))
(assert (forall ((?v0 S5) (?v1 S5)) (=> (= (f40 (f52 f53 (f17 f18 ?v0)) (f17 f18 ?v1)) f1) (= (f40 (f52 f53 ?v0) ?v1) f1))))
(assert (forall ((?v0 S5) (?v1 S5)) (=> (= (f40 (f52 f53 (f17 f18 ?v0)) ?v1) f1) (= (f40 (f52 f53 ?v0) ?v1) f1))))
(assert (forall ((?v0 S5) (?v1 S5)) (let ((?v_0 (f52 f53 ?v0))) (=> (= (f40 ?v_0 (f17 f18 ?v1)) f1) (=> (=> (= (f40 ?v_0 ?v1) f1) false) (=> (=> (= ?v0 ?v1) false) false))))))
(assert (forall ((?v0 S5) (?v1 S5) (?v2 S5)) (=> (= (f40 (f52 f53 ?v0) ?v1) f1) (=> (= (f40 (f52 f53 ?v1) ?v2) f1) (= (f40 (f52 f53 (f17 f18 ?v0)) ?v2) f1)))))
(assert (forall ((?v0 S5) (?v1 S5)) (let ((?v_0 (f17 f18 ?v0))) (=> (= (f40 (f52 f53 ?v0) ?v1) f1) (=> (not (= ?v_0 ?v1)) (= (f40 (f52 f53 ?v_0) ?v1) f1))))))
(assert (forall ((?v0 S5) (?v1 S5)) (let ((?v_0 (f52 f53 ?v0))) (=> (= (f40 ?v_0 ?v1) f1) (= (f40 ?v_0 (f17 f18 ?v1)) f1)))))
(assert (forall ((?v0 S5) (?v1 S5)) (let ((?v_0 (f52 f53 ?v0))) (=> (not (= (f40 ?v_0 ?v1) f1)) (=> (= (f40 ?v_0 (f17 f18 ?v1)) f1) (= ?v1 ?v0))))))
(assert (forall ((?v0 S5) (?v1 S5)) (let ((?v_0 (f52 f53 ?v0))) (=> (not (= (f40 ?v_0 ?v1) f1)) (= (= (f40 ?v_0 (f17 f18 ?v1)) f1) (= ?v0 ?v1))))))
(assert (forall ((?v0 S5) (?v1 S5)) (= (= (f40 (f52 f53 (f17 f18 ?v0)) (f17 f18 ?v1)) f1) (= (f40 (f52 f53 ?v0) ?v1) f1))))
(assert (forall ((?v0 S5) (?v1 S5)) (let ((?v_0 (f52 f53 ?v0))) (= (= (f40 ?v_0 (f17 f18 ?v1)) f1) (or (= (f40 ?v_0 ?v1) f1) (= ?v0 ?v1))))))
(assert (forall ((?v0 S5) (?v1 S5)) (= (not (= (f40 (f52 f53 ?v0) ?v1) f1)) (= (f40 (f52 f53 ?v1) (f17 f18 ?v0)) f1))))
(assert (forall ((?v0 S33) (?v1 S13) (?v2 S34) (?v3 S13)) (not (= (f46 (f47 (f48 f49 ?v0) ?v1) ?v2) (f19 f20 ?v3)))))
(assert (forall ((?v0 S33) (?v1 S34) (?v2 S13)) (not (= (f46 (f50 f51 ?v0) ?v1) (f19 f20 ?v2)))))
(assert (forall ((?v0 S13) (?v1 S33) (?v2 S13) (?v3 S34)) (not (= (f19 f20 ?v0) (f46 (f47 (f48 f49 ?v1) ?v2) ?v3)))))
(assert (forall ((?v0 S13) (?v1 S33) (?v2 S34)) (not (= (f19 f20 ?v0) (f46 (f50 f51 ?v1) ?v2)))))
(assert (forall ((?v0 S13)) (not (= (f19 f20 ?v0) f45))))
(assert (forall ((?v0 S13)) (not (= f45 (f19 f20 ?v0)))))
(assert (forall ((?v0 S5)) (= (= (f40 (f52 f53 f31) ?v0) f1) (exists ((?v1 S5)) (= ?v0 (f17 f18 ?v1))))))
(assert (forall ((?v0 S5)) (= (= (f40 (f52 f53 ?v0) (f17 f18 f31)) f1) (= ?v0 f31))))
(assert (forall ((?v0 S5) (?v1 S5)) (= (= (f40 (f52 f53 ?v0) (f17 f18 ?v1)) f1) (or (= ?v0 f31) (exists ((?v2 S5)) (and (= ?v0 (f17 f18 ?v2)) (= (f40 (f52 f53 ?v2) ?v1) f1)))))))
(assert (forall ((?v0 S5)) (=> (= (f40 (f52 f53 f31) ?v0) f1) (exists ((?v1 S5)) (= ?v0 (f17 f18 ?v1))))))
(assert (forall ((?v0 S14) (?v1 S5) (?v2 S5)) (=> (forall ((?v3 S5)) (= (f40 (f52 f53 (f17 ?v0 ?v3)) (f17 ?v0 (f17 f18 ?v3))) f1)) (=> (= (f40 (f52 f53 ?v1) ?v2) f1) (= (f40 (f52 f53 (f17 ?v0 ?v1)) (f17 ?v0 ?v2)) f1)))))
(assert (forall ((?v0 S40) (?v1 S5) (?v2 S5)) (=> (forall ((?v3 S5)) (= (f54 (f55 f56 (f57 ?v0 ?v3)) (f57 ?v0 (f17 f18 ?v3))) f1)) (=> (= (f40 (f52 f53 ?v1) ?v2) f1) (= (f54 (f55 f56 (f57 ?v0 ?v1)) (f57 ?v0 ?v2)) f1)))))
(assert (forall ((?v0 S14) (?v1 S5) (?v2 S5)) (=> (forall ((?v3 S5)) (= (f40 (f52 f53 (f17 ?v0 ?v3)) (f17 ?v0 (f17 f18 ?v3))) f1)) (= (= (f40 (f52 f53 (f17 ?v0 ?v1)) (f17 ?v0 ?v2)) f1) (= (f40 (f52 f53 ?v1) ?v2) f1)))))
(assert (forall ((?v0 S40) (?v1 S5) (?v2 S5)) (=> (forall ((?v3 S5)) (= (f54 (f55 f56 (f57 ?v0 ?v3)) (f57 ?v0 (f17 f18 ?v3))) f1)) (= (= (f54 (f55 f56 (f57 ?v0 ?v1)) (f57 ?v0 ?v2)) f1) (= (f40 (f52 f53 ?v1) ?v2) f1)))))
(assert (forall ((?v0 S5) (?v1 S5)) (=> (= (f40 (f52 f53 (f17 f18 ?v0)) ?v1) f1) (=> (forall ((?v2 S5)) (=> (= (f40 (f52 f53 ?v0) ?v2) f1) (=> (= ?v1 (f17 f18 ?v2)) false))) false))))
(assert (forall ((?v0 S5) (?v1 S5)) (=> (= (f40 (f52 f53 ?v0) ?v1) f1) (=> (=> (= ?v1 (f17 f18 ?v0)) false) (=> (forall ((?v2 S5)) (=> (= (f40 (f52 f53 ?v0) ?v2) f1) (=> (= ?v1 (f17 f18 ?v2)) false))) false)))))
(assert (forall ((?v0 S33) (?v1 S34) (?v2 S19)) (= (f26 (f32 (f33 f34 (f46 (f50 f51 ?v0) ?v1)) ?v2) (f58 (f59 (f60 f61 ?v2) ?v0) (f62 ?v1 ?v2))) f1)))
(assert (forall ((?v0 S33) (?v1 S34) (?v2 S19) (?v3 S19)) (=> (= (f26 (f32 (f33 f34 (f46 (f50 f51 ?v0) ?v1)) ?v2) ?v3) f1) (=> (=> (= ?v3 (f58 (f59 (f60 f61 ?v2) ?v0) (f62 ?v1 ?v2))) false) false))))
(assert (forall ((?v0 S33) (?v1 S34) (?v2 S19) (?v3 S5)) (= (f26 (f27 (f28 (f29 f30 (f46 (f50 f51 ?v0) ?v1)) ?v2) ?v3) (f58 (f59 (f60 f61 ?v2) ?v0) (f62 ?v1 ?v2))) f1)))
(assert (forall ((?v0 S33) (?v1 S34) (?v2 S19) (?v3 S5) (?v4 S19)) (=> (= (f26 (f27 (f28 (f29 f30 (f46 (f50 f51 ?v0) ?v1)) ?v2) ?v3) ?v4) f1) (=> (=> (= ?v4 (f58 (f59 (f60 f61 ?v2) ?v0) (f62 ?v1 ?v2))) false) false))))
(assert (forall ((?v0 S5)) (= (= (f54 (f55 f56 f44) (f57 f63 ?v0)) f1) (= (f40 (f52 f53 f31) ?v0) f1))))
(assert (forall ((?v0 S5)) (let ((?v_0 (f52 f53 f31))) (= (= (f40 ?v_0 (f17 f64 ?v0)) f1) (= (f40 ?v_0 ?v0) f1)))))
(assert (forall ((?v0 S5) (?v1 S5) (?v2 S30)) (=> (= (f40 (f52 f53 ?v0) ?v1) f1) (=> (forall ((?v3 S5)) (=> (= ?v1 (f17 f18 ?v3)) (= (f40 ?v2 ?v3) f1))) (=> (forall ((?v3 S5)) (=> (= (f40 (f52 f53 ?v3) ?v1) f1) (=> (= (f40 ?v2 (f17 f18 ?v3)) f1) (= (f40 ?v2 ?v3) f1)))) (= (f40 ?v2 ?v0) f1))))))
(assert (forall ((?v0 S5) (?v1 S5) (?v2 S39)) (=> (= (f40 (f52 f53 ?v0) ?v1) f1) (=> (forall ((?v3 S5)) (= (f40 (f52 ?v2 ?v3) (f17 f18 ?v3)) f1)) (=> (forall ((?v3 S5) (?v4 S5) (?v5 S5)) (let ((?v_0 (f52 ?v2 ?v3))) (=> (= (f40 (f52 f53 ?v3) ?v4) f1) (=> (= (f40 (f52 f53 ?v4) ?v5) f1) (=> (= (f40 ?v_0 ?v4) f1) (=> (= (f40 (f52 ?v2 ?v4) ?v5) f1) (= (f40 ?v_0 ?v5) f1))))))) (= (f40 (f52 ?v2 ?v0) ?v1) f1))))))
(assert (forall ((?v0 S30) (?v1 S5)) (=> (= (f40 ?v0 f31) f1) (=> (forall ((?v2 S5)) (=> (= (f40 (f52 f53 f31) ?v2) f1) (=> (not (= (f40 ?v0 ?v2) f1)) (exists ((?v3 S5)) (and (= (f40 (f52 f53 ?v3) ?v2) f1) (not (= (f40 ?v0 ?v3) f1))))))) (= (f40 ?v0 ?v1) f1)))))
(assert (forall ((?v0 S33) (?v1 S13) (?v2 S34)) (=> (= (f65 f66 (f46 (f47 (f48 f49 ?v0) ?v1) ?v2)) f1) (=> (=> (= (f65 f66 (f19 f20 ?v1)) f1) false) false))))
(assert (forall ((?v0 S33) (?v1 S34)) (=> (= (f65 f66 (f46 (f50 f51 ?v0) ?v1)) f1) (=> false false))))
(assert (=> (= (f65 f66 f45) f1) (=> false false)))
(assert (forall ((?v0 S5) (?v1 S5)) (= (= (f17 f64 ?v0) (f17 f64 ?v1)) (= ?v0 ?v1))))
(assert (forall ((?v0 S5) (?v1 S5)) (= (= (f57 f63 ?v0) (f57 f63 ?v1)) (= ?v0 ?v1))))
(assert (forall ((?v0 S33) (?v1 S34)) (= (f65 f66 (f46 (f50 f51 ?v0) ?v1)) f1)))
(assert (= (f65 f66 f45) f1))
(assert (forall ((?v0 S5)) (not (= (f54 (f55 f56 (f57 f63 ?v0)) f44) f1))))
(assert (forall ((?v0 S5)) (not (= (f40 (f52 f53 (f17 f64 ?v0)) f31) f1))))
(assert (= (f57 f63 f31) f44))
(assert (= (f17 f64 f31) f31))
(assert (forall ((?v0 S5) (?v1 S5)) (=> (= (f40 (f52 f53 (f17 f64 ?v0)) (f17 f64 ?v1)) f1) (= (f40 (f52 f53 ?v0) ?v1) f1))))
(assert (forall ((?v0 S5) (?v1 S5)) (=> (= (f54 (f55 f56 (f57 f63 ?v0)) (f57 f63 ?v1)) f1) (= (f40 (f52 f53 ?v0) ?v1) f1))))
(assert (forall ((?v0 S5) (?v1 S5)) (=> (= (f40 (f52 f53 ?v0) ?v1) f1) (= (f40 (f52 f53 (f17 f64 ?v0)) (f17 f64 ?v1)) f1))))
(assert (forall ((?v0 S5) (?v1 S5)) (=> (= (f40 (f52 f53 ?v0) ?v1) f1) (= (f54 (f55 f56 (f57 f63 ?v0)) (f57 f63 ?v1)) f1))))
(assert (forall ((?v0 S5) (?v1 S5)) (= (= (f40 (f52 f53 (f17 f64 ?v0)) (f17 f64 ?v1)) f1) (= (f40 (f52 f53 ?v0) ?v1) f1))))
(assert (forall ((?v0 S5) (?v1 S5)) (= (= (f54 (f55 f56 (f57 f63 ?v0)) (f57 f63 ?v1)) f1) (= (f40 (f52 f53 ?v0) ?v1) f1))))
(assert (forall ((?v0 S13) (?v1 S33) (?v2 S34)) (=> (= (f65 f66 (f19 f20 ?v0)) f1) (= (f65 f66 (f46 (f47 (f48 f49 ?v1) ?v0) ?v2)) f1))))
(assert (forall ((?v0 S5)) (= (= (f54 (f55 f56 f44) (f57 f63 ?v0)) f1) (= (f40 (f52 f53 f31) ?v0) f1))))
(assert (forall ((?v0 S13)) (=> (not (= (f14 ?v0) f67)) (= (f65 f66 (f19 f20 ?v0)) f1))))
(assert (forall ((?v0 S5) (?v1 S5)) (= (= (f54 (f55 f56 (f57 f63 ?v0)) (f57 f63 ?v1)) f1) (= (f40 (f52 f53 ?v0) ?v1) f1))))
(assert (forall ((?v0 S5) (?v1 S5)) (= (= (f54 (f55 f56 (f57 f63 ?v0)) (f57 f63 ?v1)) f1) (= (f40 (f52 f53 ?v0) ?v1) f1))))
(assert (forall ((?v0 S32)) (=> (= (f54 (f55 f56 f44) ?v0) f1) (exists ((?v1 S5)) (and (= (f40 (f52 f53 f31) ?v1) f1) (= ?v0 (f57 f63 ?v1)))))))
(assert (forall ((?v0 S5)) (not (= (f54 (f55 f56 (f57 f63 ?v0)) f44) f1))))
(assert (forall ((?v0 S5) (?v1 S5)) (= (= (f57 f63 ?v0) (f57 f63 ?v1)) (= ?v0 ?v1))))
(assert (forall ((?v0 S5) (?v1 S5)) (= (= (f57 f63 ?v0) (f57 f63 ?v1)) (= ?v0 ?v1))))
(assert (forall ((?v0 S1) (?v1 S5) (?v2 S5)) (let ((?v_0 (= ?v0 f1))) (= (ite ?v_0 (f57 f63 ?v1) (f57 f63 ?v2)) (f57 f63 (ite ?v_0 ?v1 ?v2))))))
(assert (forall ((?v0 S32) (?v1 S32)) (or (= (f54 (f55 f56 ?v0) ?v1) f1) (or (= ?v0 ?v1) (= (f54 (f55 f56 ?v1) ?v0) f1)))))
(assert (forall ((?v0 S5)) (= (= (f57 f63 ?v0) f44) (= ?v0 f31))))
(assert (= (f57 f63 f31) f44))
(assert (= f44 (f57 f63 f31)))
(assert (forall ((?v0 S32)) (= (= (f54 (f55 f56 (f68 f69 ?v0)) f44) f1) (= (f54 (f55 f56 ?v0) f44) f1))))
(assert (forall ((?v0 S32)) (let ((?v_0 (f55 f56 f44))) (= (= (f54 ?v_0 (f68 f69 ?v0)) f1) (= (f54 ?v_0 ?v0) f1)))))
(assert (forall ((?v0 S32) (?v1 S32) (?v2 S5)) (let ((?v_0 (f70 f71 (f57 f63 ?v2)))) (=> (= (f54 (f55 f56 ?v0) ?v1) f1) (=> (= (f40 (f52 f53 f31) ?v2) f1) (= (f54 (f55 f56 (f68 ?v_0 ?v0)) (f68 ?v_0 ?v1)) f1))))))
(assert (forall ((?v0 S5)) (= (f54 (f55 f56 (f68 f72 (f57 f63 (f17 f18 ?v0)))) f44) f1)))
(assert (forall ((?v0 S5) (?v1 S5)) (= (f54 (f55 f56 (f68 f72 (f57 f63 (f17 f18 ?v0)))) (f57 f63 ?v1)) f1)))
(assert (forall ((?v0 S5)) (let ((?v_0 (f57 f63 ?v0))) (= (f68 f69 ?v_0) ?v_0))))
(assert (forall ((?v0 S5) (?v1 S5)) (= (f57 f63 (f17 (f73 f74 ?v0) ?v1)) (f68 (f70 f71 (f57 f63 ?v0)) (f57 f63 ?v1)))))
(assert (forall ((?v0 S5) (?v1 S5)) (= (f17 f64 (f17 (f73 f74 ?v0) ?v1)) (f17 (f73 f74 (f17 f64 ?v0)) (f17 f64 ?v1)))))
(assert (forall ((?v0 S32) (?v1 S32) (?v2 S32)) (let ((?v_0 (f70 f71 ?v0))) (= (f68 (f70 f71 (f68 ?v_0 ?v1)) ?v2) (f68 ?v_0 (f68 (f70 f71 ?v1) ?v2))))))
(assert (forall ((?v0 S32) (?v1 S32)) (= (= (f68 f69 ?v0) (f68 f69 ?v1)) (= ?v0 ?v1))))
(assert (forall ((?v0 S32) (?v1 S32)) (= (f68 (f70 f71 (f68 f72 ?v0)) ?v1) (f68 f72 (f68 (f70 f71 ?v0) ?v1)))))
(assert (forall ((?v0 S32) (?v1 S32)) (= (f68 (f70 f71 ?v0) ?v1) (f68 (f70 f71 ?v1) ?v0))))
(assert (forall ((?v0 S32) (?v1 S32)) (= (f68 f69 (f68 (f70 f71 ?v0) ?v1)) (f68 (f70 f71 (f68 f69 ?v0)) (f68 f69 ?v1)))))
(assert (forall ((?v0 S32)) (= (f68 f69 (f68 f72 ?v0)) (f68 f72 (f68 f69 ?v0)))))
(assert (forall ((?v0 S32)) (= (f68 f72 (f68 f72 ?v0)) ?v0)))
(assert (= (f68 f72 f44) f44))
(assert (forall ((?v0 S32) (?v1 S32)) (= (= (f54 (f55 f56 (f68 f72 ?v0)) (f68 f72 ?v1)) f1) (= (f54 (f55 f56 ?v1) ?v0) f1))))
(assert (forall ((?v0 S32) (?v1 S32)) (= (= (f54 (f55 f56 (f68 f72 ?v0)) ?v1) f1) (= (f54 (f55 f56 (f68 f72 ?v1)) ?v0) f1))))
(assert (forall ((?v0 S32) (?v1 S32)) (= (= (f54 (f55 f56 ?v0) (f68 f72 ?v1)) f1) (= (f54 (f55 f56 ?v1) (f68 f72 ?v0)) f1))))
(assert (= (f68 f72 f44) f44))
(assert (forall ((?v0 S32)) (= (= f44 (f68 f72 ?v0)) (= f44 ?v0))))
(assert (forall ((?v0 S32)) (= (= ?v0 (f68 f72 ?v0)) (= ?v0 f44))))
(assert (forall ((?v0 S32)) (= (= (f68 f72 ?v0) f44) (= ?v0 f44))))
(assert (forall ((?v0 S32)) (= (= (f68 f72 ?v0) ?v0) (= ?v0 f44))))
(assert (forall ((?v0 S32) (?v1 S32) (?v2 S32)) (let ((?v_0 (f70 f71 ?v0))) (= (f68 (f70 f71 (f68 ?v_0 ?v1)) ?v2) (f68 ?v_0 (f68 (f70 f71 ?v1) ?v2))))))
(assert (forall ((?v0 S5) (?v1 S5) (?v2 S5)) (let ((?v_0 (f73 f74 ?v0))) (= (f17 (f73 f74 (f17 ?v_0 ?v1)) ?v2) (f17 ?v_0 (f17 (f73 f74 ?v1) ?v2))))))
(assert (forall ((?v0 S32) (?v1 S32)) (= (= (f68 f72 ?v0) (f68 f72 ?v1)) (= ?v0 ?v1))))
(assert (forall ((?v0 S32) (?v1 S32)) (= (= (f68 f72 ?v0) ?v1) (= (f68 f72 ?v1) ?v0))))
(assert (forall ((?v0 S32) (?v1 S32)) (= (= ?v0 (f68 f72 ?v1)) (= ?v1 (f68 f72 ?v0)))))
(assert (forall ((?v0 S32)) (= (f68 f72 (f68 f72 ?v0)) ?v0)))
(assert (forall ((?v0 S32)) (= (= (f54 (f55 f56 f44) (f68 f72 ?v0)) f1) (= (f54 (f55 f56 ?v0) f44) f1))))
(assert (forall ((?v0 S32)) (= (= (f54 (f55 f56 (f68 f72 ?v0)) f44) f1) (= (f54 (f55 f56 f44) ?v0) f1))))
(assert (forall ((?v0 S32)) (= (= (f54 (f55 f56 (f68 f72 ?v0)) ?v0) f1) (= (f54 (f55 f56 f44) ?v0) f1))))
(assert (forall ((?v0 S5) (?v1 S5)) (= (= (f68 f72 (f57 f63 ?v0)) (f57 f63 ?v1)) (and (= ?v0 f31) (= ?v1 f31)))))
(assert (forall ((?v0 S5) (?v1 S5)) (not (= (f54 (f55 f56 (f57 f63 ?v0)) (f68 f72 (f57 f63 ?v1))) f1))))
(assert (forall ((?v0 S32) (?v1 S32) (?v2 S32)) (let ((?v_0 (f70 f71 ?v2))) (=> (= (f54 (f55 f56 ?v0) ?v1) f1) (=> (= (f54 (f55 f56 f44) ?v2) f1) (= (f54 (f55 f56 (f68 ?v_0 ?v0)) (f68 ?v_0 ?v1)) f1))))))
(assert (forall ((?v0 S32)) (= (= (f68 f69 ?v0) f44) (= ?v0 f44))))
(assert (forall ((?v0 S32)) (= (= f44 (f68 f69 ?v0)) (= ?v0 f44))))
(assert (= (f68 f69 f44) f44))
(assert (forall ((?v0 S32) (?v1 S32)) (= (= (f54 (f55 f56 (f68 f69 ?v0)) (f68 f69 ?v1)) f1) (= (f54 (f55 f56 ?v0) ?v1) f1))))
(assert (forall ((?v0 S5)) (let ((?v_0 (f57 f63 ?v0))) (= (f68 f69 ?v_0) ?v_0))))
(assert (forall ((?v0 S32)) (=> (= (f54 (f55 f56 ?v0) f44) f1) (exists ((?v1 S5)) (= ?v0 (f68 f72 (f57 f63 (f17 f18 ?v1))))))))
(assert (forall ((?v0 S32)) (let ((?v_0 (f55 f56 ?v0))) (= (= (f54 ?v_0 (f68 f72 ?v0)) f1) (= (f54 ?v_0 f44) f1)))))
(assert (forall ((?v0 S32) (?v1 S32) (?v2 S32)) (let ((?v_0 (f70 f71 ?v2))) (=> (= (f54 (f55 f56 ?v0) ?v1) f1) (=> (= (f54 (f55 f56 ?v2) f44) f1) (= (f54 (f55 f56 (f68 ?v_0 ?v1)) (f68 ?v_0 ?v0)) f1))))))
(assert (forall ((?v0 S32) (?v1 S32) (?v2 S32)) (=> (= (f54 (f55 f56 ?v0) ?v1) f1) (=> (= (f54 (f55 f56 ?v2) f44) f1) (= (f54 (f55 f56 (f68 (f70 f71 ?v1) ?v2)) (f68 (f70 f71 ?v0) ?v2)) f1)))))
(assert (forall ((?v0 S5)) (= (f17 (f73 f74 f31) ?v0) f31)))
(assert (forall ((?v0 S5)) (= (f17 (f73 f74 ?v0) f31) f31)))
(assert (forall ((?v0 S5) (?v1 S5)) (= (= (f17 (f73 f74 ?v0) ?v1) f31) (or (= ?v0 f31) (= ?v1 f31)))))
(assert (forall ((?v0 S5) (?v1 S5) (?v2 S5)) (let ((?v_0 (f73 f74 ?v0))) (= (= (f17 ?v_0 ?v1) (f17 ?v_0 ?v2)) (or (= ?v1 ?v2) (= ?v0 f31))))))
(assert (forall ((?v0 S5) (?v1 S5) (?v2 S5)) (= (= (f17 (f73 f74 ?v0) ?v1) (f17 (f73 f74 ?v2) ?v1)) (or (= ?v0 ?v2) (= ?v1 f31)))))
(assert (forall ((?v0 S5) (?v1 S5) (?v2 S5)) (let ((?v_0 (f73 f74 (f17 f18 ?v0)))) (= (= (f17 ?v_0 ?v1) (f17 ?v_0 ?v2)) (= ?v1 ?v2)))))
(assert (forall ((?v0 S5) (?v1 S5) (?v2 S5)) (let ((?v_0 (f73 f74 ?v0))) (= (f17 (f73 f74 (f17 ?v_0 ?v1)) ?v2) (f17 ?v_0 (f17 (f73 f74 ?v1) ?v2))))))
(assert (forall ((?v0 S5) (?v1 S5)) (= (f17 (f73 f74 ?v0) ?v1) (f17 (f73 f74 ?v1) ?v0))))
(assert (forall ((?v0 S5) (?v1 S5)) (let ((?v_0 (f17 f18 f31))) (= (= (f17 (f73 f74 ?v0) ?v1) ?v_0) (and (= ?v0 ?v_0) (= ?v1 ?v_0))))))
(assert (forall ((?v0 S5) (?v1 S5)) (let ((?v_0 (f52 f53 f31))) (= (= (f40 ?v_0 (f17 (f73 f74 ?v0) ?v1)) f1) (and (= (f40 ?v_0 ?v0) f1) (= (f40 ?v_0 ?v1) f1))))))
(assert (forall ((?v0 S5) (?v1 S5) (?v2 S5)) (let ((?v_0 (f73 f74 ?v0))) (= (= (f40 (f52 f53 (f17 ?v_0 ?v1)) (f17 ?v_0 ?v2)) f1) (and (= (f40 (f52 f53 f31) ?v0) f1) (= (f40 (f52 f53 ?v1) ?v2) f1))))))
(assert (forall ((?v0 S5) (?v1 S5) (?v2 S5)) (= (= (f40 (f52 f53 (f17 (f73 f74 ?v0) ?v1)) (f17 (f73 f74 ?v2) ?v1)) f1) (and (= (f40 (f52 f53 f31) ?v1) f1) (= (f40 (f52 f53 ?v0) ?v2) f1)))))
(assert (forall ((?v0 S5) (?v1 S5) (?v2 S5)) (=> (= (f40 (f52 f53 ?v0) ?v1) f1) (=> (= (f40 (f52 f53 f31) ?v2) f1) (= (f40 (f52 f53 (f17 (f73 f74 ?v0) ?v2)) (f17 (f73 f74 ?v1) ?v2)) f1)))))
(assert (forall ((?v0 S5) (?v1 S5) (?v2 S5)) (let ((?v_0 (f73 f74 ?v2))) (=> (= (f40 (f52 f53 ?v0) ?v1) f1) (=> (= (f40 (f52 f53 f31) ?v2) f1) (= (f40 (f52 f53 (f17 ?v_0 ?v0)) (f17 ?v_0 ?v1)) f1))))))
(assert (forall ((?v0 S5) (?v1 S5) (?v2 S5)) (let ((?v_0 (f73 f74 (f17 f18 ?v0)))) (= (= (f40 (f52 f53 (f17 ?v_0 ?v1)) (f17 ?v_0 ?v2)) f1) (= (f40 (f52 f53 ?v1) ?v2) f1)))))
(assert (forall ((?v0 S5) (?v1 S5)) (= (f68 (f70 f71 (f57 f63 ?v0)) (f57 f63 ?v1)) (f57 f63 (f17 (f73 f74 ?v0) ?v1)))))
(assert (forall ((?v0 S5) (?v1 S5)) (= (f68 (f70 f71 (f57 f63 ?v0)) (f57 f63 ?v1)) (f57 f63 (f17 (f73 f74 ?v0) ?v1)))))
(assert (forall ((?v0 S5) (?v1 S5)) (= (f57 f63 (f17 (f73 f74 ?v0) ?v1)) (f68 (f70 f71 (f57 f63 ?v0)) (f57 f63 ?v1)))))
(assert (forall ((?v0 S5) (?v1 S5)) (let ((?v_0 (f52 f53 (f17 f18 f31)))) (=> (= (f40 ?v_0 ?v0) f1) (=> (= (f40 ?v_0 ?v1) f1) (= (f40 ?v_0 (f17 (f73 f74 ?v1) ?v0)) f1))))))
(assert (forall ((?v0 S5) (?v1 S5)) (let ((?v_0 (f52 f53 (f17 f18 f31)))) (=> (= (f40 ?v_0 ?v0) f1) (=> (= (f40 ?v_0 ?v1) f1) (= (f40 (f52 f53 ?v0) (f17 (f73 f74 ?v0) ?v1)) f1))))))
(assert (forall ((?v0 S5) (?v1 S5)) (let ((?v_0 (f52 f53 (f17 f18 f31)))) (=> (= (f40 ?v_0 ?v0) f1) (=> (= (f40 ?v_0 ?v1) f1) (= (f40 (f52 f53 ?v0) (f17 (f73 f74 ?v1) ?v0)) f1))))))
(assert (forall ((?v0 S32) (?v1 S32)) (=> (not (= ?v0 ?v1)) (=> (=> (= (f54 (f55 f56 ?v0) ?v1) f1) false) (=> (=> (= (f54 (f55 f56 ?v1) ?v0) f1) false) false)))))
(assert (forall ((?v0 S32) (?v1 S32)) (=> (= (f68 (f70 f71 ?v0) ?v1) f44) (or (= ?v0 f44) (= ?v1 f44)))))
(assert (forall ((?v0 S5) (?v1 S5)) (=> (= (f17 (f73 f74 ?v0) ?v1) f31) (or (= ?v0 f31) (= ?v1 f31)))))
(assert (forall ((?v0 S32) (?v1 S32)) (=> (not (= ?v0 f44)) (=> (not (= ?v1 f44)) (not (= (f68 (f70 f71 ?v0) ?v1) f44))))))
(assert (forall ((?v0 S5) (?v1 S5)) (=> (not (= ?v0 f31)) (=> (not (= ?v1 f31)) (not (= (f17 (f73 f74 ?v0) ?v1) f31))))))
(assert (forall ((?v0 S32) (?v1 S32)) (= (= (f68 (f70 f71 ?v0) ?v1) f44) (or (= ?v0 f44) (= ?v1 f44)))))
(assert (forall ((?v0 S32)) (= (f68 (f70 f71 ?v0) f44) f44)))
(assert (forall ((?v0 S5)) (= (f17 (f73 f74 ?v0) f31) f31)))
(assert (forall ((?v0 S32)) (= (f68 (f70 f71 f44) ?v0) f44)))
(assert (forall ((?v0 S5)) (= (f17 (f73 f74 f31) ?v0) f31)))
(assert (forall ((?v0 S32) (?v1 S32)) (= (= (f68 (f70 f71 ?v0) ?v0) (f68 (f70 f71 ?v1) ?v1)) (or (= ?v0 ?v1) (= ?v0 (f68 f72 ?v1))))))
(assert (forall ((?v0 S32) (?v1 S32)) (= (f68 (f70 f71 (f68 f72 ?v0)) (f68 f72 ?v1)) (f68 (f70 f71 ?v0) ?v1))))
(assert (forall ((?v0 S32) (?v1 S32)) (= (f68 (f70 f71 (f68 f72 ?v0)) ?v1) (f68 (f70 f71 ?v0) (f68 f72 ?v1)))))
(assert (forall ((?v0 S32) (?v1 S32)) (= (f68 f72 (f68 (f70 f71 ?v0) ?v1)) (f68 (f70 f71 (f68 f72 ?v0)) ?v1))))
(assert (forall ((?v0 S32) (?v1 S32)) (let ((?v_0 (f70 f71 ?v0))) (= (f68 f72 (f68 ?v_0 ?v1)) (f68 ?v_0 (f68 f72 ?v1))))))
(assert (forall ((?v0 S32)) (not (= (f54 (f55 f56 (f68 (f70 f71 ?v0) ?v0)) f44) f1))))
(assert (forall ((?v0 S32) (?v1 S32) (?v2 S32)) (= (= (f54 (f55 f56 (f68 (f70 f71 ?v0) ?v1)) (f68 (f70 f71 ?v2) ?v1)) f1) (or (and (= (f54 (f55 f56 f44) ?v1) f1) (= (f54 (f55 f56 ?v0) ?v2) f1)) (and (= (f54 (f55 f56 ?v1) f44) f1) (= (f54 (f55 f56 ?v2) ?v0) f1))))))
(assert (forall ((?v0 S32) (?v1 S32) (?v2 S32)) (let ((?v_0 (f70 f71 ?v0))) (= (= (f54 (f55 f56 (f68 ?v_0 ?v1)) (f68 ?v_0 ?v2)) f1) (or (and (= (f54 (f55 f56 f44) ?v0) f1) (= (f54 (f55 f56 ?v1) ?v2) f1)) (and (= (f54 (f55 f56 ?v0) f44) f1) (= (f54 (f55 f56 ?v2) ?v1) f1)))))))
(assert (forall ((?v0 S32) (?v1 S32) (?v2 S32)) (let ((?v_0 (f70 f71 ?v0))) (=> (= (f54 (f55 f56 f44) ?v0) f1) (= (= (f54 (f55 f56 (f68 ?v_0 ?v1)) (f68 ?v_0 ?v2)) f1) (= (f54 (f55 f56 ?v1) ?v2) f1))))))
(assert (forall ((?v0 S32) (?v1 S32)) (let ((?v_0 (f55 f56 f44))) (=> (= (f54 ?v_0 ?v0) f1) (=> (= (f54 ?v_0 ?v1) f1) (= (f54 ?v_0 (f68 (f70 f71 ?v0) ?v1)) f1))))))
(assert (forall ((?v0 S5) (?v1 S5)) (let ((?v_0 (f52 f53 f31))) (=> (= (f40 ?v_0 ?v0) f1) (=> (= (f40 ?v_0 ?v1) f1) (= (f40 ?v_0 (f17 (f73 f74 ?v0) ?v1)) f1))))))
(assert (forall ((?v0 S32) (?v1 S32)) (=> (= (f54 (f55 f56 f44) ?v0) f1) (=> (= (f54 (f55 f56 ?v1) f44) f1) (= (f54 (f55 f56 (f68 (f70 f71 ?v0) ?v1)) f44) f1)))))
(assert (forall ((?v0 S5) (?v1 S5)) (=> (= (f40 (f52 f53 f31) ?v0) f1) (=> (= (f40 (f52 f53 ?v1) f31) f1) (= (f40 (f52 f53 (f17 (f73 f74 ?v0) ?v1)) f31) f1)))))
(assert (forall ((?v0 S32) (?v1 S32)) (=> (= (f54 (f55 f56 f44) ?v0) f1) (=> (= (f54 (f55 f56 ?v1) f44) f1) (= (f54 (f55 f56 (f68 (f70 f71 ?v1) ?v0)) f44) f1)))))
(assert (forall ((?v0 S5) (?v1 S5)) (=> (= (f40 (f52 f53 f31) ?v0) f1) (=> (= (f40 (f52 f53 ?v1) f31) f1) (= (f40 (f52 f53 (f17 (f73 f74 ?v1) ?v0)) f31) f1)))))
(assert (forall ((?v0 S32) (?v1 S32)) (let ((?v_0 (f55 f56 f44))) (=> (= (f54 ?v_0 (f68 (f70 f71 ?v0) ?v1)) f1) (=> (= (f54 ?v_0 ?v0) f1) (= (f54 ?v_0 ?v1) f1))))))
(assert (forall ((?v0 S5) (?v1 S5)) (let ((?v_0 (f52 f53 f31))) (=> (= (f40 ?v_0 (f17 (f73 f74 ?v0) ?v1)) f1) (=> (= (f40 ?v_0 ?v0) f1) (= (f40 ?v_0 ?v1) f1))))))
(assert (forall ((?v0 S32) (?v1 S32)) (let ((?v_0 (f55 f56 f44))) (=> (= (f54 ?v_0 (f68 (f70 f71 ?v0) ?v1)) f1) (=> (= (f54 ?v_0 ?v1) f1) (= (f54 ?v_0 ?v0) f1))))))
(assert (forall ((?v0 S5) (?v1 S5)) (let ((?v_0 (f52 f53 f31))) (=> (= (f40 ?v_0 (f17 (f73 f74 ?v0) ?v1)) f1) (=> (= (f40 ?v_0 ?v1) f1) (= (f40 ?v_0 ?v0) f1))))))
(assert (forall ((?v0 S32) (?v1 S32) (?v2 S32)) (let ((?v_0 (f70 f71 ?v0))) (=> (= (f54 (f55 f56 ?v0) f44) f1) (= (= (f54 (f55 f56 (f68 ?v_0 ?v1)) (f68 ?v_0 ?v2)) f1) (= (f54 (f55 f56 ?v2) ?v1) f1))))))
(assert (forall ((?v0 S32) (?v1 S32)) (=> (= (f54 (f55 f56 ?v0) f44) f1) (=> (= (f54 (f55 f56 f44) ?v1) f1) (= (f54 (f55 f56 (f68 (f70 f71 ?v0) ?v1)) f44) f1)))))
(assert (forall ((?v0 S5) (?v1 S5)) (=> (= (f40 (f52 f53 ?v0) f31) f1) (=> (= (f40 (f52 f53 f31) ?v1) f1) (= (f40 (f52 f53 (f17 (f73 f74 ?v0) ?v1)) f31) f1)))))
(assert (forall ((?v0 S32) (?v1 S32)) (=> (= (f54 (f55 f56 ?v0) f44) f1) (=> (= (f54 (f55 f56 ?v1) f44) f1) (= (f54 (f55 f56 f44) (f68 (f70 f71 ?v0) ?v1)) f1)))))
(assert (forall ((?v0 S32) (?v1 S32) (?v2 S32)) (=> (= (f54 (f55 f56 ?v0) ?v1) f1) (=> (= (f54 (f55 f56 f44) ?v2) f1) (= (f54 (f55 f56 (f68 (f70 f71 ?v0) ?v2)) (f68 (f70 f71 ?v1) ?v2)) f1)))))
(assert (forall ((?v0 S5) (?v1 S5) (?v2 S5)) (=> (= (f40 (f52 f53 ?v0) ?v1) f1) (=> (= (f40 (f52 f53 f31) ?v2) f1) (= (f40 (f52 f53 (f17 (f73 f74 ?v0) ?v2)) (f17 (f73 f74 ?v1) ?v2)) f1)))))
(assert (forall ((?v0 S32) (?v1 S32) (?v2 S32)) (let ((?v_0 (f70 f71 ?v2))) (=> (= (f54 (f55 f56 ?v0) ?v1) f1) (=> (= (f54 (f55 f56 f44) ?v2) f1) (= (f54 (f55 f56 (f68 ?v_0 ?v0)) (f68 ?v_0 ?v1)) f1))))))
(assert (forall ((?v0 S5) (?v1 S5) (?v2 S5)) (let ((?v_0 (f73 f74 ?v2))) (=> (= (f40 (f52 f53 ?v0) ?v1) f1) (=> (= (f40 (f52 f53 f31) ?v2) f1) (= (f40 (f52 f53 (f17 ?v_0 ?v0)) (f17 ?v_0 ?v1)) f1))))))
(assert (forall ((?v0 S32) (?v1 S32) (?v2 S32)) (let ((?v_0 (f70 f71 ?v2))) (=> (= (f54 (f55 f56 ?v0) ?v1) f1) (=> (= (f54 (f55 f56 f44) ?v2) f1) (= (f54 (f55 f56 (f68 ?v_0 ?v0)) (f68 ?v_0 ?v1)) f1))))))
(assert (forall ((?v0 S5) (?v1 S5) (?v2 S5)) (let ((?v_0 (f73 f74 ?v2))) (=> (= (f40 (f52 f53 ?v0) ?v1) f1) (=> (= (f40 (f52 f53 f31) ?v2) f1) (= (f40 (f52 f53 (f17 ?v_0 ?v0)) (f17 ?v_0 ?v1)) f1))))))
(assert (forall ((?v0 S5) (?v1 S5) (?v2 S5)) (let ((?v_0 (f73 f74 ?v0))) (=> (= (f40 (f52 f53 f31) ?v0) f1) (= (= (f40 (f52 f53 (f17 ?v_0 ?v1)) (f17 ?v_0 ?v2)) f1) (= (f40 (f52 f53 ?v1) ?v2) f1))))))
(assert (forall ((?v0 S5) (?v1 S5) (?v2 S5)) (let ((?v_0 (f73 f74 ?v0))) (=> (= (f40 (f52 f53 f31) ?v0) f1) (= (= (f17 ?v_0 ?v1) (f17 ?v_0 ?v2)) (= ?v1 ?v2))))))
(assert (forall ((?v0 S5) (?v1 S5) (?v2 S5)) (let ((?v_0 (f73 f74 ?v0))) (= (= (f17 ?v_0 ?v1) (f17 ?v_0 ?v2)) (or (= ?v0 f31) (= ?v1 ?v2))))))
(assert (forall ((?v0 S32)) (= (f68 (f70 f71 ?v0) f44) f44)))
(assert (forall ((?v0 S5)) (= (f17 (f73 f74 ?v0) f31) f31)))
(assert (forall ((?v0 S32)) (= (f68 (f70 f71 f44) ?v0) f44)))
(assert (forall ((?v0 S5)) (= (f17 (f73 f74 f31) ?v0) f31)))
(assert (forall ((?v0 S32) (?v1 S32)) (= (f68 (f70 f71 ?v0) ?v1) (f68 (f70 f71 ?v1) ?v0))))
(assert (forall ((?v0 S5) (?v1 S5)) (= (f17 (f73 f74 ?v0) ?v1) (f17 (f73 f74 ?v1) ?v0))))
(assert (forall ((?v0 S32) (?v1 S32) (?v2 S32)) (let ((?v_1 (f70 f71 ?v0)) (?v_0 (f70 f71 ?v1))) (= (f68 ?v_1 (f68 ?v_0 ?v2)) (f68 ?v_0 (f68 ?v_1 ?v2))))))
(assert (forall ((?v0 S5) (?v1 S5) (?v2 S5)) (let ((?v_1 (f73 f74 ?v0)) (?v_0 (f73 f74 ?v1))) (= (f17 ?v_1 (f17 ?v_0 ?v2)) (f17 ?v_0 (f17 ?v_1 ?v2))))))
(assert (forall ((?v0 S32) (?v1 S32) (?v2 S32)) (let ((?v_0 (f70 f71 ?v0))) (= (f68 ?v_0 (f68 (f70 f71 ?v1) ?v2)) (f68 (f70 f71 (f68 ?v_0 ?v1)) ?v2)))))
(assert (forall ((?v0 S5) (?v1 S5) (?v2 S5)) (let ((?v_0 (f73 f74 ?v0))) (= (f17 ?v_0 (f17 (f73 f74 ?v1) ?v2)) (f17 (f73 f74 (f17 ?v_0 ?v1)) ?v2)))))
(assert (forall ((?v0 S32) (?v1 S32) (?v2 S32)) (let ((?v_0 (f70 f71 ?v0))) (= (f68 (f70 f71 (f68 ?v_0 ?v1)) ?v2) (f68 ?v_0 (f68 (f70 f71 ?v1) ?v2))))))
(assert (forall ((?v0 S5) (?v1 S5) (?v2 S5)) (let ((?v_0 (f73 f74 ?v0))) (= (f17 (f73 f74 (f17 ?v_0 ?v1)) ?v2) (f17 ?v_0 (f17 (f73 f74 ?v1) ?v2))))))
(assert (forall ((?v0 S32) (?v1 S32) (?v2 S32)) (let ((?v_0 (f70 f71 ?v0))) (= (f68 (f70 f71 (f68 ?v_0 ?v1)) ?v2) (f68 (f70 f71 (f68 ?v_0 ?v2)) ?v1)))))
(assert (forall ((?v0 S5) (?v1 S5) (?v2 S5)) (let ((?v_0 (f73 f74 ?v0))) (= (f17 (f73 f74 (f17 ?v_0 ?v1)) ?v2) (f17 (f73 f74 (f17 ?v_0 ?v2)) ?v1)))))
(assert (forall ((?v0 S32) (?v1 S32) (?v2 S32) (?v3 S32)) (let ((?v_0 (f70 f71 ?v0)) (?v_1 (f68 (f70 f71 ?v2) ?v3))) (= (f68 (f70 f71 (f68 ?v_0 ?v1)) ?v_1) (f68 ?v_0 (f68 (f70 f71 ?v1) ?v_1))))))
(assert (forall ((?v0 S5) (?v1 S5) (?v2 S5) (?v3 S5)) (let ((?v_0 (f73 f74 ?v0)) (?v_1 (f17 (f73 f74 ?v2) ?v3))) (= (f17 (f73 f74 (f17 ?v_0 ?v1)) ?v_1) (f17 ?v_0 (f17 (f73 f74 ?v1) ?v_1))))))
(assert (forall ((?v0 S32) (?v1 S32) (?v2 S32) (?v3 S32)) (let ((?v_1 (f70 f71 (f68 (f70 f71 ?v0) ?v1))) (?v_0 (f70 f71 ?v2))) (= (f68 ?v_1 (f68 ?v_0 ?v3)) (f68 ?v_0 (f68 ?v_1 ?v3))))))
(assert (forall ((?v0 S5) (?v1 S5) (?v2 S5) (?v3 S5)) (let ((?v_1 (f73 f74 (f17 (f73 f74 ?v0) ?v1))) (?v_0 (f73 f74 ?v2))) (= (f17 ?v_1 (f17 ?v_0 ?v3)) (f17 ?v_0 (f17 ?v_1 ?v3))))))
(assert (forall ((?v0 S32) (?v1 S32) (?v2 S32) (?v3 S32)) (let ((?v_0 (f70 f71 ?v0))) (= (f68 (f70 f71 (f68 ?v_0 ?v1)) (f68 (f70 f71 ?v2) ?v3)) (f68 (f70 f71 (f68 ?v_0 ?v2)) (f68 (f70 f71 ?v1) ?v3))))))
(assert (forall ((?v0 S5) (?v1 S5) (?v2 S5) (?v3 S5)) (let ((?v_0 (f73 f74 ?v0))) (= (f17 (f73 f74 (f17 ?v_0 ?v1)) (f17 (f73 f74 ?v2) ?v3)) (f17 (f73 f74 (f17 ?v_0 ?v2)) (f17 (f73 f74 ?v1) ?v3))))))
(assert (forall ((?v0 S41) (?v1 S32)) (=> (forall ((?v2 S5)) (= (f54 ?v0 (f57 f63 ?v2)) f1)) (=> (forall ((?v2 S5)) (= (f54 ?v0 (f68 f72 (f57 f63 (f17 f18 ?v2)))) f1)) (= (f54 ?v0 ?v1) f1)))))
(assert (forall ((?v0 S32)) (=> (forall ((?v1 S5)) (=> (= ?v0 (f57 f63 ?v1)) false)) (=> (forall ((?v1 S5)) (=> (= ?v0 (f68 f72 (f57 f63 (f17 f18 ?v1)))) false)) false))))
(assert (forall ((?v0 S32)) (= (f68 f69 ?v0) (ite (= (f54 (f55 f56 ?v0) f44) f1) (f68 f72 (f57 f63 (f75 f76 (f68 f72 ?v0)))) (f57 f63 (f75 f76 ?v0))))))
(assert (forall ((?v0 S5)) (not (= (f54 (f55 f77 f44) (f68 f72 (f57 f63 (f17 f18 ?v0)))) f1))))
(assert (forall ((?v0 S5) (?v1 S5)) (= (f54 (f55 f77 (f68 f72 (f57 f63 ?v0))) (f57 f63 ?v1)) f1)))
(check-sat)
(exit)
